benchmarks_vrp/CMT12/min_c/CMT12_6.vrp
NAME: CMT12_6
TYPE: CVRP
COMMENT: 819.56 - Cluster Nr.6
DIMENSION: 11
CAPACITY: 200
EDGE_WEIGHT_TYPE: EUC_2D
NODE_COORD_TYPE: TWOD_COORDS
NODE_COORD_SECTION: 
6 75 55
4 70 58
7 60 55
9 65 60
5 68 60
10 63 58
11 60 60
3 66 55
8 65 55
2 40 50
1 72 55
DEPOT_SECTION: 
2
-1
DEMAND_SECTION: 
8 20
10 10
9 30
5 30
11 10
1 10
6 20
4 20
7 10
3 10
2 0
EOF
