benchmarks_vrp/CMT12/min_c/CMT12_6.tour
NAME: CMT12_6 solution
TYPE: TOUR
TOUR_SECTION:
2 7 8 3 1 6 4 5 9 10 11 -1
-1
EOF